20
0 2752 2793
1 2840 2777
2 2779 2820
3 2780 2761
4 2830 2847
5 2783 2790
6 2837 2798
7 2795 2825
8 1555 1546
9 1536 1566
10 1512 1588
11 1515 1574
12 1545 1533
13 1574 1577
14 1547 1550
15 1560 1586
16 34 94
17 46 66
18 19 52
19 41 46
5000
